NAME : N40ft205.dat.9836.tour
COMMENT : Length = 9836
COMMENT : Found by LKH [Keld Helsgaun] Sat Nov 11 16:41:59 2017
TYPE : TOUR
DIMENSION : 40
TOUR_SECTION
1
37
7
26
4
36
24
34
14
29
27
15
2
33
12
11
8
21
39
6
20
38
30
3
22
16
18
40
13
28
19
23
17
10
9
35
31
32
25
5
-1
EOF
